InboundTrucks  = 30;
OutboundTrucks = 30;
InboundDoors   = 15;
OutboundDoors  = 15;
ReleaseTime    = [1,2,2,11,5,9,52,97,47,97,24,94,107,40,75,101,70,112,85,67,89,76,84,54,24,23,66,79,60,68];
UnloadTime     = [13,14,11,8,7,7,18,25,14,30,28,29,12,32,23,26,11,17,17,35,11,23,10,28,27,31,14,34,28,15];
LoadTime       = [9,12,15,15,9,6,24,19,12,13,23,12,12,22,20,14,23,12,25,12,15,11,13,12,23,12,25,11,25,18];
TransferTime   = [| 0,0,0,1,3,0,0,0,0,0,0,0,0,0,0,0,0,0,0,0,0,0,0,0,0,0,0,0,0,0 | 1,3,4,2,1,2,0,0,0,0,0,0,0,0,0,0,0,0,0,0,0,0,0,0,0,0,0,0,0,0 | 0,0,0,0,0,0,5,0,0,0,0,0,0,0,0,0,0,0,0,0,0,0,0,0,0,0,0,0,0,0 | 2,3,0,0,1,1,0,0,0,0,0,0,0,0,0,0,0,0,0,0,0,0,0,0,0,0,0,0,0,0 | 4,2,1,4,1,2,0,0,0,0,0,0,0,0,0,0,0,0,0,0,0,0,0,0,0,0,0,0,0,0 | 4,3,4,4,0,3,0,0,0,0,0,0,0,0,0,0,0,0,0,0,0,0,0,0,0,0,0,0,0,0 | 0,0,3,0,0,0,0,0,3,6,0,0,0,0,0,0,0,0,0,0,0,0,0,6,0,0,0,4,0,0 | 0,0,0,0,7,0,0,0,0,0,4,0,0,0,0,4,4,0,0,7,7,0,0,0,0,0,0,8,0,0 | 0,0,3,0,0,5,7,0,4,4,0,0,0,0,0,5,0,7,6,8,8,4,6,0,0,0,0,0,0,5 | 0,0,0,0,0,0,7,5,0,0,0,0,4,5,6,4,5,0,8,6,0,7,0,6,5,0,0,8,0,0 | 0,5,0,0,7,7,6,0,0,0,0,3,4,0,5,0,0,0,0,0,6,0,0,0,0,0,0,0,0,0 | 0,7,0,0,6,5,5,0,8,0,0,0,0,0,7,0,8,0,0,4,0,7,0,4,0,0,4,0,5,8 | 0,0,0,0,8,0,0,0,0,0,0,0,4,0,0,0,0,5,0,0,4,0,0,0,5,0,6,0,0,0 | 0,4,8,0,0,0,6,0,0,0,6,0,0,5,0,0,0,3,0,0,0,0,0,6,6,0,0,0,0,0 | 0,0,0,3,0,4,0,8,0,8,3,0,0,0,8,0,0,0,0,0,0,0,6,7,4,0,0,0,0,6 | 3,0,0,0,0,4,0,0,6,0,0,6,6,5,0,5,4,3,7,4,0,0,0,0,0,0,6,0,0,0 | 3,0,0,0,0,8,3,0,0,4,0,7,0,0,0,0,0,0,0,0,0,0,4,7,0,7,0,0,0,0 | 4,0,4,4,0,0,0,6,0,0,8,0,0,0,0,0,8,0,0,0,0,0,4,0,0,4,0,0,0,0 | 8,0,3,8,8,0,7,6,8,0,0,0,0,0,6,0,0,4,6,0,0,0,3,0,0,0,0,4,0,0 | 0,0,0,4,3,7,0,4,0,0,0,8,0,0,5,0,7,0,0,0,5,0,0,0,0,7,0,8,0,6 | 6,0,0,0,0,0,0,0,0,0,5,8,0,4,0,0,0,0,3,0,5,0,3,7,0,3,0,7,0,0 | 8,4,0,0,0,4,0,0,0,0,0,8,8,0,5,0,0,0,0,0,0,0,5,0,4,0,0,3,0,0 | 0,0,0,0,3,0,3,0,0,5,0,0,5,7,3,0,7,0,6,5,0,0,0,0,0,0,0,0,0,5 | 0,4,0,0,0,0,3,6,0,8,0,0,5,7,0,0,0,0,5,0,0,0,6,0,0,0,4,6,0,0 | 0,6,0,8,0,6,3,8,0,4,0,0,0,4,6,7,7,8,4,0,0,3,0,0,7,0,0,8,0,6 | 0,5,0,0,0,0,0,0,0,4,0,0,5,0,3,0,0,5,0,0,0,7,7,6,0,4,0,8,8,0 | 0,0,7,7,0,5,3,5,0,0,0,0,0,0,0,0,8,0,0,3,6,8,4,0,5,0,0,4,6,3 | 0,0,7,8,0,7,0,0,0,7,0,0,0,3,0,4,3,0,0,6,4,6,0,0,0,0,0,0,7,4 | 0,0,0,6,0,0,6,0,3,0,0,4,6,8,0,0,3,0,0,0,0,0,3,7,0,8,0,0,0,7 | 3,0,5,4,3,0,5,5,5,0,0,0,6,0,0,0,0,6,0,0,0,3,8,8,0,0,0,0,0,0 |];
